SAT
113 -104 -101 -76 -102 -137 -20 26 -63 111 128 -88 -136 -53 34 -112 -132 -122 -129 116 21 -84 66 -58 -11 -119 -42 82 143 2 28 -114 -13 -27 70 -75 -24 -110 -48 -30 -60 32 50 145 150 93 -8 121 -78 55 -46 97 -92 31 18 -131 -87 -3 100 -138 -22 68 38 61 -146 14 -1 -115 10 -51 45 -139 -108 72 -59 -124 127 94 120 -109 -90 -5 -23 148 -130 -47 133 36 -86 -29 -62 -56 -118 103 71 -17 -35 40 -16 -65 140 -57 -141 106 -135 -4 -15 105 98 -126 -144 -83 -89 117 19 -79 33 -123 -73 44 96 37 25 134 -7 -142 -54 85 -81 -67 -43 80 91 64 12 9 -125 39 -52 -149 -95 -41 -6 -77 -99 -107 -69 -49 -147 -74 0
